p cnf 12 50 
9 -5 -1 0
-10 2 8 0
-9 10 4 0
-12 -4 3 0
-4 7 -5 0
4 -12 5 0
-11 -3 1 0
-7 8 -3 0
7 6 -10 0
4 7 9 0
10 11 -5 0
10 -11 -3 0
-8 -3 7 0
11 -5 6 0
-9 -1 10 0
-10 3 -8 0
-10 11 12 0
4 -8 11 0
10 -1 -4 0
-4 1 -7 0
12 -2 -7 0
5 1 11 0
11 -9 -12 0
-6 12 -11 0
4 6 12 0
8 11 9 0
-5 -9 -11 0
1 -12 2 0
8 3 10 0
-1 6 -2 0
7 -5 -2 0
9 3 8 0
-9 1 -7 0
11 -12 -3 0
-5 8 -4 0
4 3 11 0
7 4 8 0
-2 -3 -1 0
4 -3 2 0
-9 -5 11 0
-5 2 1 0
-9 -10 -5 0
1 -2 3 0
9 6 7 0
-9 -7 2 0
-8 11 -5 0
4 2 7 0
8 -5 7 0
12 -7 10 0
11 6 -12 0
